70
1 0 16
2 0 28
2 1 11
3 0 38
3 1 7
3 2 30
4 0 24
4 1 19
4 2 19
4 3 16
5 0 23
5 1 40
5 2 13
5 3 31
5 4 6
6 0 26
6 1 6
6 2 34
6 3 17
6 4 30
6 5 12
7 0 10
7 1 10
7 2 11
7 3 8
7 4 14
7 5 6
7 6 26
8 0 15
8 1 10
8 2 19
8 3 17
8 4 35
8 5 21
8 6 36
8 7 39
9 0 1
9 1 3
9 2 5
9 3 15
9 4 28
9 5 9
9 6 6
9 7 15
9 8 12
10 0 3
10 1 10
10 2 31
10 3 9
10 4 30
10 5 1
10 6 22
10 7 21
10 8 35
10 9 27
11 0 5
11 1 6
11 2 29
11 3 24
11 4 40
11 5 26
11 6 23
11 7 8
11 8 32
11 9 23
11 10 14
12 0 32
12 1 34
12 2 31
12 3 25
12 4 33
12 5 8
12 6 16
12 7 17
12 8 12
12 9 6
12 10 14
12 11 24
13 0 6
13 1 23
13 2 5
13 3 20
13 4 8
13 5 30
13 6 33
13 7 18
13 8 26
13 9 2
13 10 24
13 11 39
13 12 21
14 0 1
14 1 24
14 2 39
14 3 12
14 4 4
14 5 9
14 6 15
14 7 23
14 8 2
14 9 22
14 10 25
14 11 40
14 12 21
14 13 6
15 0 16
15 1 6
15 2 19
15 3 4
15 4 12
15 5 17
15 6 27
15 7 33
15 8 10
15 9 16
15 10 5
15 11 18
15 12 38
15 13 22
15 14 1
16 0 31
16 1 30
16 2 36
16 3 6
16 4 24
16 5 30
16 6 27
16 7 18
16 8 15
16 9 28
16 10 5
16 11 35
16 12 26
16 13 11
16 14 5
16 15 21
17 0 4
17 1 40
17 2 3
17 3 7
17 4 23
17 5 13
17 6 16
17 7 16
17 8 30
17 9 4
17 10 21
17 11 31
17 12 17
17 13 15
17 14 5
17 15 5
17 16 6
18 0 4
18 1 10
18 2 32
18 3 8
18 4 9
18 5 11
18 6 10
18 7 28
18 8 14
18 9 39
18 10 16
18 11 29
18 12 36
18 13 13
18 14 33
18 15 19
18 16 18
18 17 14
19 0 23
19 1 25
19 2 27
19 3 27
19 4 37
19 5 10
19 6 37
19 7 14
19 8 1
19 9 1
19 10 29
19 11 36
19 12 16
19 13 1
19 14 16
19 15 2
19 16 16
19 17 17
19 18 27
20 0 15
20 1 5
20 2 21
20 3 4
20 4 31
20 5 18
20 6 17
20 7 24
20 8 27
20 9 24
20 10 36
20 11 9
20 12 13
20 13 15
20 14 14
20 15 12
20 16 15
20 17 2
20 18 35
20 19 17
21 0 38
21 1 13
21 2 1
21 3 32
21 4 25
21 5 29
21 6 31
21 7 8
21 8 8
21 9 9
21 10 11
21 11 5
21 12 4
21 13 30
21 14 3
21 15 19
21 16 23
21 17 16
21 18 23
21 19 14
21 20 27
22 0 10
22 1 37
22 2 39
22 3 39
22 4 25
22 5 20
22 6 36
22 7 27
22 8 6
22 9 37
22 10 35
22 11 2
22 12 9
22 13 10
22 14 8
22 15 27
22 16 33
22 17 13
22 18 9
22 19 15
22 20 12
22 21 4
23 0 18
23 1 30
23 2 35
23 3 1
23 4 22
23 5 15
23 6 4
23 7 32
23 8 35
23 9 26
23 10 20
23 11 8
23 12 18
23 13 10
23 14 25
23 15 33
23 16 37
23 17 7
23 18 40
23 19 32
23 20 7
23 21 19
23 22 8
24 0 35
24 1 7
24 2 16
24 3 4
24 4 22
24 5 8
24 6 16
24 7 16
24 8 38
24 9 5
24 10 11
24 11 5
24 12 33
24 13 38
24 14 20
24 15 36
24 16 29
24 17 16
24 18 5
24 19 5
24 20 6
24 21 14
24 22 22
24 23 32
25 0 23
25 1 13
25 2 10
25 3 32
25 4 15
25 5 24
25 6 23
25 7 23
25 8 36
25 9 22
25 10 23
25 11 21
25 12 27
25 13 31
25 14 30
25 15 31
25 16 3
25 17 5
25 18 26
25 19 40
25 20 6
25 21 26
25 22 35
25 23 15
25 24 22
26 0 33
26 1 10
26 2 2
26 3 7
26 4 11
26 5 39
26 6 22
26 7 33
26 8 25
26 9 21
26 10 3
26 11 18
26 12 35
26 13 24
26 14 18
26 15 22
26 16 24
26 17 35
26 18 25
26 19 28
26 20 21
26 21 35
26 22 12
26 23 10
26 24 37
26 25 11
27 0 28
27 1 11
27 2 1
27 3 24
27 4 14
27 5 14
27 6 14
27 7 9
27 8 4
27 9 8
27 10 25
27 11 37
27 12 13
27 13 38
27 14 30
27 15 11
27 16 17
27 17 5
27 18 37
27 19 1
27 20 25
27 21 26
27 22 2
27 23 5
27 24 11
27 25 31
27 26 26
28 0 26
28 1 7
28 2 10
28 3 15
28 4 14
28 5 3
28 6 20
28 7 25
28 8 11
28 9 32
28 10 23
28 11 25
28 12 27
28 13 40
28 14 40
28 15 21
28 16 14
28 17 13
28 18 38
28 19 37
28 20 32
28 21 26
28 22 9
28 23 37
28 24 7
28 25 18
28 26 1
28 27 35
29 0 33
29 1 29
29 2 26
29 3 4
29 4 31
29 5 36
29 6 9
29 7 24
29 8 15
29 9 18
29 10 21
29 11 5
29 12 17
29 13 27
29 14 13
29 15 18
29 16 3
29 17 7
29 18 23
29 19 26
29 20 10
29 21 24
29 22 37
29 23 24
29 24 33
29 25 18
29 26 28
29 27 3
29 28 15
30 0 30
30 1 39
30 2 9
30 3 22
30 4 16
30 5 40
30 6 15
30 7 4
30 8 8
30 9 2
30 10 34
30 11 18
30 12 29
30 13 36
30 14 12
30 15 35
30 16 37
30 17 35
30 18 34
30 19 6
30 20 33
30 21 28
30 22 11
30 23 3
30 24 33
30 25 19
30 26 14
30 27 39
30 28 20
30 29 3
31 0 24
31 1 22
31 2 30
31 3 24
31 4 18
31 5 10
31 6 36
31 7 37
31 8 15
31 9 9
31 10 38
31 11 34
31 12 19
31 13 30
31 14 3
31 15 16
31 16 31
31 17 8
31 18 13
31 19 1
31 20 34
31 21 10
31 22 27
31 23 7
31 24 40
31 25 2
31 26 9
31 27 1
31 28 32
31 29 4
31 30 11
32 0 30
32 1 24
32 2 22
32 3 1
32 4 9
32 5 32
32 6 32
32 7 34
32 8 14
32 9 18
32 10 28
32 11 40
32 12 13
32 13 35
32 14 37
32 15 38
32 16 19
32 17 4
32 18 5
32 19 15
32 20 21
32 21 20
32 22 34
32 23 38
32 24 11
32 25 33
32 26 27
32 27 22
32 28 16
32 29 20
32 30 28
32 31 37
33 0 20
33 1 40
33 2 21
33 3 10
33 4 35
33 5 20
33 6 13
33 7 32
33 8 12
33 9 8
33 10 21
33 11 6
33 12 6
33 13 9
33 14 19
33 15 39
33 16 24
33 17 22
33 18 35
33 19 10
33 20 19
33 21 27
33 22 33
33 23 10
33 24 9
33 25 38
33 26 3
33 27 36
33 28 40
33 29 35
33 30 15
33 31 10
33 32 35
34 0 18
34 1 17
34 2 13
34 3 24
34 4 23
34 5 26
34 6 6
34 7 20
34 8 17
34 9 23
34 10 2
34 11 16
34 12 25
34 13 7
34 14 34
34 15 28
34 16 4
34 17 26
34 18 29
34 19 29
34 20 1
34 21 40
34 22 21
34 23 23
34 24 30
34 25 18
34 26 26
34 27 19
34 28 3
34 29 8
34 30 24
34 31 22
34 32 7
34 33 13
35 0 4
35 1 36
35 2 33
35 3 24
35 4 3
35 5 25
35 6 40
35 7 39
35 8 5
35 9 1
35 10 31
35 11 20
35 12 10
35 13 22
35 14 10
35 15 1
35 16 40
35 17 12
35 18 36
35 19 16
35 20 35
35 21 20
35 22 23
35 23 18
35 24 17
35 25 34
35 26 35
35 27 5
35 28 29
35 29 31
35 30 37
35 31 34
35 32 15
35 33 5
35 34 25
36 0 23
36 1 15
36 2 32
36 3 33
36 4 20
36 5 13
36 6 5
36 7 3
36 8 38
36 9 30
36 10 9
36 11 40
36 12 12
36 13 25
36 14 30
36 15 11
36 16 33
36 17 23
36 18 15
36 19 33
36 20 24
36 21 37
36 22 7
36 23 28
36 24 16
36 25 29
36 26 31
36 27 37
36 28 24
36 29 29
36 30 39
36 31 38
36 32 33
36 33 20
36 34 39
36 35 26
37 0 39
37 1 13
37 2 17
37 3 15
37 4 25
37 5 29
37 6 19
37 7 28
37 8 39
37 9 21
37 10 27
37 11 22
37 12 3
37 13 36
37 14 4
37 15 26
37 16 25
37 17 33
37 18 30
37 19 16
37 20 37
37 21 38
37 22 6
37 23 28
37 24 22
37 25 21
37 26 29
37 27 6
37 28 35
37 29 11
37 30 11
37 31 4
37 32 29
37 33 5
37 34 30
37 35 40
37 36 16
38 0 9
38 1 4
38 2 2
38 3 4
38 4 29
38 5 40
38 6 22
38 7 21
38 8 40
38 9 17
38 10 3
38 11 2
38 12 32
38 13 27
38 14 8
38 15 31
38 16 37
38 17 11
38 18 1
38 19 18
38 20 31
38 21 33
38 22 1
38 23 39
38 24 38
38 25 21
38 26 20
38 27 38
38 28 6
38 29 11
38 30 23
38 31 22
38 32 38
38 33 16
38 34 35
38 35 29
38 36 16
38 37 18
39 0 17
39 1 18
39 2 38
39 3 21
39 4 28
39 5 14
39 6 10
39 7 5
39 8 25
39 9 18
39 10 7
39 11 29
39 12 32
39 13 9
39 14 40
39 15 5
39 16 22
39 17 20
39 18 2
39 19 22
39 20 32
39 21 5
39 22 5
39 23 2
39 24 39
39 25 1
39 26 1
39 27 24
39 28 6
39 29 11
39 30 27
39 31 39
39 32 22
39 33 15
39 34 20
39 35 11
39 36 31
39 37 24
39 38 15
40 0 35
40 1 15
40 2 19
40 3 11
40 4 27
40 5 40
40 6 18
40 7 9
40 8 18
40 9 37
40 10 13
40 11 13
40 12 26
40 13 18
40 14 18
40 15 36
40 16 16
40 17 9
40 18 35
40 19 5
40 20 6
40 21 34
40 22 39
40 23 26
40 24 1
40 25 16
40 26 24
40 27 2
40 28 30
40 29 39
40 30 28
40 31 38
40 32 25
40 33 10
40 34 23
40 35 24
40 36 12
40 37 24
40 38 23
40 39 31
41 0 36
41 1 15
41 2 10
41 3 24
41 4 39
41 5 15
41 6 6
41 7 17
41 8 11
41 9 15
41 10 29
41 11 5
41 12 11
41 13 34
41 14 10
41 15 7
41 16 8
41 17 18
41 18 22
41 19 22
41 20 20
41 21 17
41 22 35
41 23 15
41 24 18
41 25 2
41 26 11
41 27 13
41 28 6
41 29 15
41 30 23
41 31 12
41 32 11
41 33 7
41 34 16
41 35 27
41 36 36
41 37 32
41 38 1
41 39 28
41 40 27
42 0 19
42 1 2
42 2 8
42 3 11
42 4 34
42 5 4
42 6 35
42 7 16
42 8 6
42 9 7
42 10 19
42 11 4
42 12 19
42 13 1
42 14 16
42 15 5
42 16 20
42 17 8
42 18 14
42 19 27
42 20 35
42 21 6
42 22 24
42 23 21
42 24 16
42 25 26
42 26 13
42 27 20
42 28 11
42 29 31
42 30 23
42 31 4
42 32 16
42 33 31
42 34 26
42 35 40
42 36 10
42 37 24
42 38 38
42 39 16
42 40 31
42 41 13
43 0 23
43 1 19
43 2 31
43 3 10
43 4 7
43 5 28
43 6 6
43 7 23
43 8 4
43 9 18
43 10 16
43 11 11
43 12 20
43 13 2
43 14 39
43 15 39
43 16 4
43 17 38
43 18 17
43 19 15
43 20 27
43 21 36
43 22 32
43 23 17
43 24 34
43 25 7
43 26 6
43 27 8
43 28 7
43 29 7
43 30 14
43 31 11
43 32 37
43 33 14
43 34 39
43 35 3
43 36 5
43 37 29
43 38 10
43 39 19
43 40 22
43 41 29
43 42 30
44 0 19
44 1 37
44 2 9
44 3 20
44 4 37
44 5 11
44 6 33
44 7 39
44 8 23
44 9 16
44 10 29
44 11 1
44 12 33
44 13 2
44 14 36
44 15 5
44 16 6
44 17 29
44 18 14
44 19 22
44 20 38
44 21 29
44 22 24
44 23 32
44 24 40
44 25 32
44 26 30
44 27 26
44 28 16
44 29 2
44 30 31
44 31 11
44 32 16
44 33 24
44 34 32
44 35 8
44 36 2
44 37 30
44 38 26
44 39 25
44 40 8
44 41 30
44 42 36
44 43 38
45 0 9
45 1 16
45 2 40
45 3 8
45 4 1
45 5 6
45 6 23
45 7 24
45 8 20
45 9 14
45 10 27
45 11 36
45 12 33
45 13 35
45 14 30
45 15 32
45 16 24
45 17 11
45 18 13
45 19 29
45 20 3
45 21 3
45 22 8
45 23 32
45 24 6
45 25 1
45 26 9
45 27 37
45 28 27
45 29 10
45 30 33
45 31 1
45 32 37
45 33 34
45 34 17
45 35 32
45 36 36
45 37 9
45 38 37
45 39 8
45 40 26
45 41 2
45 42 3
45 43 30
45 44 6
46 0 38
46 1 16
46 2 23
46 3 18
46 4 4
46 5 37
46 6 3
46 7 13
46 8 25
46 9 1
46 10 18
46 11 36
46 12 38
46 13 1
46 14 10
46 15 12
46 16 33
46 17 17
46 18 40
46 19 21
46 20 38
46 21 28
46 22 22
46 23 1
46 24 38
46 25 15
46 26 16
46 27 1
46 28 3
46 29 27
46 30 21
46 31 26
46 32 20
46 33 28
46 34 5
46 35 37
46 36 22
46 37 16
46 38 24
46 39 12
46 40 4
46 41 16
46 42 23
46 43 4
46 44 31
46 45 27
47 0 23
47 1 30
47 2 30
47 3 20
47 4 39
47 5 19
47 6 35
47 7 11
47 8 11
47 9 40
47 10 11
47 11 4
47 12 23
47 13 27
47 14 17
47 15 5
47 16 3
47 17 24
47 18 35
47 19 7
47 20 38
47 21 39
47 22 26
47 23 8
47 24 27
47 25 31
47 26 36
47 27 18
47 28 37
47 29 4
47 30 40
47 31 10
47 32 22
47 33 20
47 34 24
47 35 8
47 36 11
47 37 13
47 38 11
47 39 40
47 40 33
47 41 15
47 42 8
47 43 40
47 44 8
47 45 17
47 46 31
48 0 12
48 1 31
48 2 8
48 3 2
48 4 15
48 5 26
48 6 37
48 7 14
48 8 36
48 9 26
48 10 22
48 11 32
48 12 27
48 13 11
48 14 12
48 15 12
48 16 31
48 17 13
48 18 5
48 19 1
48 20 15
48 21 11
48 22 11
48 23 6
48 24 19
48 25 4
48 26 34
48 27 24
48 28 39
48 29 37
48 30 12
48 31 20
48 32 31
48 33 19
48 34 1
48 35 24
48 36 13
48 37 37
48 38 37
48 39 20
48 40 20
48 41 34
48 42 38
48 43 39
48 44 10
48 45 22
48 46 17
48 47 15
49 0 25
49 1 15
49 2 31
49 3 31
49 4 38
49 5 18
49 6 20
49 7 33
49 8 18
49 9 33
49 10 37
49 11 5
49 12 17
49 13 14
49 14 35
49 15 17
49 16 40
49 17 14
49 18 17
49 19 26
49 20 31
49 21 17
49 22 9
49 23 25
49 24 34
49 25 17
49 26 5
49 27 31
49 28 27
49 29 21
49 30 1
49 31 37
49 32 35
49 33 23
49 34 24
49 35 22
49 36 20
49 37 5
49 38 21
49 39 34
49 40 11
49 41 21
49 42 1
49 43 3
49 44 27
49 45 39
49 46 31
49 47 34
49 48 1
50 0 36
50 1 37
50 2 28
50 3 32
50 4 27
50 5 33
50 6 38
50 7 7
50 8 10
50 9 20
50 10 29
50 11 36
50 12 37
50 13 36
50 14 22
50 15 28
50 16 39
50 17 3
50 18 35
50 19 16
50 20 20
50 21 30
50 22 33
50 23 12
50 24 17
50 25 8
50 26 16
50 27 11
50 28 5
50 29 39
50 30 14
50 31 24
50 32 28
50 33 26
50 34 23
50 35 4
50 36 40
50 37 23
50 38 10
50 39 11
50 40 34
50 41 10
50 42 15
50 43 38
50 44 5
50 45 14
50 46 24
50 47 35
50 48 31
50 49 22
51 0 6
51 1 17
51 2 20
51 3 30
51 4 17
51 5 11
51 6 14
51 7 11
51 8 20
51 9 20
51 10 34
51 11 14
51 12 32
51 13 31
51 14 21
51 15 26
51 16 16
51 17 14
51 18 17
51 19 35
51 20 31
51 21 6
51 22 14
51 23 22
51 24 10
51 25 9
51 26 12
51 27 33
51 28 6
51 29 4
51 30 6
51 31 20
51 32 15
51 33 6
51 34 28
51 35 29
51 36 7
51 37 28
51 38 25
51 39 17
51 40 9
51 41 29
51 42 31
51 43 37
51 44 8
51 45 11
51 46 40
51 47 18
51 48 14
51 49 30
51 50 20
52 0 33
52 1 5
52 2 10
52 3 11
52 4 5
52 5 30
52 6 36
52 7 3
52 8 3
52 9 34
52 10 17
52 11 11
52 12 39
52 13 6
52 14 8
52 15 8
52 16 36
52 17 19
52 18 13
52 19 40
52 20 21
52 21 30
52 22 34
52 23 4
52 24 14
52 25 23
52 26 34
52 27 31
52 28 12
52 29 26
52 30 14
52 31 16
52 32 35
52 33 7
52 34 36
52 35 22
52 36 23
52 37 39
52 38 15
52 39 25
52 40 31
52 41 34
52 42 26
52 43 5
52 44 5
52 45 23
52 46 35
52 47 24
52 48 37
52 49 18
52 50 20
52 51 21
53 0 22
53 1 16
53 2 24
53 3 17
53 4 13
53 5 38
53 6 28
53 7 7
53 8 30
53 9 20
53 10 18
53 11 25
53 12 40
53 13 1
53 14 34
53 15 14
53 16 35
53 17 31
53 18 28
53 19 20
53 20 30
53 21 30
53 22 31
53 23 19
53 24 17
53 25 6
53 26 13
53 27 32
53 28 12
53 29 34
53 30 24
53 31 20
53 32 39
53 33 27
53 34 6
53 35 29
53 36 40
53 37 7
53 38 38
53 39 12
53 40 35
53 41 38
53 42 40
53 43 40
53 44 11
53 45 33
53 46 18
53 47 2
53 48 24
53 49 21
53 50 37
53 51 22
53 52 22
54 0 17
54 1 13
54 2 28
54 3 8
54 4 28
54 5 7
54 6 2
54 7 29
54 8 39
54 9 15
54 10 15
54 11 8
54 12 4
54 13 11
54 14 7
54 15 14
54 16 36
54 17 38
54 18 34
54 19 33
54 20 31
54 21 1
54 22 23
54 23 8
54 24 30
54 25 9
54 26 5
54 27 23
54 28 5
54 29 19
54 30 31
54 31 28
54 32 40
54 33 35
54 34 30
54 35 39
54 36 10
54 37 30
54 38 29
54 39 24
54 40 24
54 41 19
54 42 22
54 43 37
54 44 7
54 45 39
54 46 5
54 47 24
54 48 19
54 49 29
54 50 1
54 51 5
54 52 20
54 53 4
55 0 22
55 1 6
55 2 34
55 3 11
55 4 39
55 5 1
55 6 34
55 7 28
55 8 13
55 9 9
55 10 29
55 11 12
55 12 2
55 13 37
55 14 37
55 15 25
55 16 11
55 17 15
55 18 32
55 19 30
55 20 19
55 21 26
55 22 7
55 23 30
55 24 39
55 25 26
55 26 30
55 27 17
55 28 17
55 29 8
55 30 4
55 31 25
55 32 5
55 33 28
55 34 1
55 35 23
55 36 39
55 37 9
55 38 11
55 39 6
55 40 15
55 41 39
55 42 35
55 43 12
55 44 18
55 45 12
55 46 36
55 47 37
55 48 6
55 49 37
55 50 39
55 51 29
55 52 16
55 53 37
55 54 8
56 0 1
56 1 5
56 2 18
56 3 6
56 4 28
56 5 2
56 6 27
56 7 5
56 8 13
56 9 19
56 10 7
56 11 34
56 12 20
56 13 10
56 14 29
56 15 6
56 16 39
56 17 39
56 18 3
56 19 27
56 20 33
56 21 39
56 22 28
56 23 10
56 24 31
56 25 29
56 26 1
56 27 26
56 28 36
56 29 13
56 30 36
56 31 36
56 32 24
56 33 32
56 34 16
56 35 18
56 36 3
56 37 3
56 38 31
56 39 19
56 40 23
56 41 25
56 42 37
56 43 21
56 44 5
56 45 27
56 46 32
56 47 16
56 48 18
56 49 40
56 50 15
56 51 8
56 52 13
56 53 37
56 54 25
56 55 37
57 0 30
57 1 4
57 2 29
57 3 17
57 4 13
57 5 37
57 6 27
57 7 25
57 8 2
57 9 40
57 10 33
57 11 30
57 12 14
57 13 32
57 14 35
57 15 13
57 16 37
57 17 12
57 18 29
57 19 33
57 20 28
57 21 29
57 22 39
57 23 36
57 24 11
57 25 4
57 26 30
57 27 12
57 28 15
57 29 26
57 30 35
57 31 24
57 32 8
57 33 6
57 34 28
57 35 37
57 36 33
57 37 18
57 38 27
57 39 4
57 40 2
57 41 19
57 42 10
57 43 13
57 44 4
57 45 25
57 46 30
57 47 3
57 48 16
57 49 38
57 50 13
57 51 37
57 52 3
57 53 15
57 54 8
57 55 20
57 56 1
58 0 21
58 1 21
58 2 17
58 3 35
58 4 21
58 5 32
58 6 24
58 7 26
58 8 14
58 9 32
58 10 25
58 11 22
58 12 26
58 13 5
58 14 19
58 15 36
58 16 18
58 17 40
58 18 24
58 19 1
58 20 34
58 21 1
58 22 8
58 23 39
58 24 21
58 25 29
58 26 13
58 27 1
58 28 2
58 29 21
58 30 33
58 31 22
58 32 3
58 33 40
58 34 27
58 35 24
58 36 32
58 37 36
58 38 32
58 39 14
58 40 26
58 41 12
58 42 33
58 43 13
58 44 24
58 45 14
58 46 5
58 47 34
58 48 31
58 49 17
58 50 1
58 51 11
58 52 28
58 53 24
58 54 9
58 55 36
58 56 21
58 57 25
59 0 33
59 1 30
59 2 21
59 3 10
59 4 13
59 5 15
59 6 39
59 7 29
59 8 22
59 9 21
59 10 23
59 11 6
59 12 21
59 13 19
59 14 20
59 15 16
59 16 19
59 17 1
59 18 27
59 19 14
59 20 27
59 21 22
59 22 24
59 23 13
59 24 37
59 25 40
59 26 4
59 27 4
59 28 21
59 29 9
59 30 30
59 31 32
59 32 12
59 33 7
59 34 33
59 35 22
59 36 39
59 37 3
59 38 35
59 39 39
59 40 40
59 41 11
59 42 25
59 43 14
59 44 21
59 45 29
59 46 25
59 47 24
59 48 7
59 49 40
59 50 20
59 51 40
59 52 33
59 53 17
59 54 17
59 55 21
59 56 21
59 57 26
59 58 26
60 0 8
60 1 15
60 2 4
60 3 14
60 4 22
60 5 30
60 6 19
60 7 2
60 8 30
60 9 15
60 10 30
60 11 23
60 12 3
60 13 7
60 14 20
60 15 16
60 16 26
60 17 31
60 18 23
60 19 39
60 20 4
60 21 1
60 22 22
60 23 30
60 24 26
60 25 10
60 26 3
60 27 38
60 28 3
60 29 30
60 30 19
60 31 24
60 32 1
60 33 29
60 34 7
60 35 24
60 36 5
60 37 6
60 38 14
60 39 17
60 40 29
60 41 24
60 42 17
60 43 7
60 44 38
60 45 21
60 46 13
60 47 32
60 48 32
60 49 17
60 50 31
60 51 28
60 52 10
60 53 22
60 54 10
60 55 4
60 56 16
60 57 23
60 58 29
60 59 1
61 0 32
61 1 6
61 2 32
61 3 24
61 4 26
61 5 7
61 6 7
61 7 38
61 8 2
61 9 11
61 10 23
61 11 4
61 12 16
61 13 40
61 14 15
61 15 30
61 16 16
61 17 20
61 18 29
61 19 11
61 20 31
61 21 30
61 22 29
61 23 39
61 24 35
61 25 23
61 26 14
61 27 8
61 28 22
61 29 9
61 30 24
61 31 21
61 32 23
61 33 36
61 34 21
61 35 29
61 36 18
61 37 34
61 38 2
61 39 31
61 40 24
61 41 30
61 42 12
61 43 5
61 44 3
61 45 10
61 46 25
61 47 15
61 48 23
61 49 25
61 50 36
61 51 21
61 52 37
61 53 39
61 54 37
61 55 37
61 56 32
61 57 8
61 58 9
61 59 17
61 60 40
62 0 12
62 1 14
62 2 7
62 3 36
62 4 22
62 5 23
62 6 13
62 7 19
62 8 14
62 9 24
62 10 16
62 11 6
62 12 34
62 13 19
62 14 12
62 15 35
62 16 9
62 17 10
62 18 1
62 19 13
62 20 11
62 21 30
62 22 21
62 23 25
62 24 11
62 25 11
62 26 20
62 27 4
62 28 26
62 29 31
62 30 39
62 31 28
62 32 24
62 33 17
62 34 27
62 35 6
62 36 4
62 37 8
62 38 40
62 39 35
62 40 25
62 41 30
62 42 40
62 43 26
62 44 18
62 45 12
62 46 4
62 47 6
62 48 32
62 49 38
62 50 19
62 51 27
62 52 28
62 53 9
62 54 17
62 55 18
62 56 24
62 57 23
62 58 21
62 59 26
62 60 6
62 61 35
63 0 25
63 1 39
63 2 16
63 3 20
63 4 14
63 5 1
63 6 29
63 7 16
63 8 17
63 9 16
63 10 33
63 11 2
63 12 15
63 13 1
63 14 37
63 15 24
63 16 24
63 17 32
63 18 36
63 19 10
63 20 7
63 21 7
63 22 33
63 23 31
63 24 17
63 25 33
63 26 24
63 27 37
63 28 15
63 29 19
63 30 37
63 31 25
63 32 27
63 33 40
63 34 19
63 35 36
63 36 10
63 37 3
63 38 34
63 39 15
63 40 12
63 41 25
63 42 15
63 43 39
63 44 2
63 45 18
63 46 1
63 47 8
63 48 14
63 49 35
63 50 12
63 51 3
63 52 8
63 53 14
63 54 11
63 55 30
63 56 27
63 57 8
63 58 23
63 59 3
63 60 4
63 61 5
63 62 1
64 0 38
64 1 37
64 2 7
64 3 34
64 4 38
64 5 38
64 6 36
64 7 38
64 8 39
64 9 9
64 10 21
64 11 26
64 12 17
64 13 2
64 14 38
64 15 35
64 16 16
64 17 13
64 18 29
64 19 24
64 20 2
64 21 4
64 22 2
64 23 5
64 24 30
64 25 10
64 26 24
64 27 12
64 28 37
64 29 8
64 30 6
64 31 13
64 32 34
64 33 19
64 34 20
64 35 36
64 36 18
64 37 20
64 38 29
64 39 21
64 40 37
64 41 26
64 42 33
64 43 4
64 44 3
64 45 33
64 46 27
64 47 30
64 48 14
64 49 30
64 50 27
64 51 5
64 52 40
64 53 37
64 54 38
64 55 37
64 56 3
64 57 38
64 58 40
64 59 3
64 60 32
64 61 23
64 62 16
64 63 11
65 0 38
65 1 28
65 2 4
65 3 4
65 4 3
65 5 12
65 6 28
65 7 36
65 8 18
65 9 29
65 10 12
65 11 40
65 12 33
65 13 7
65 14 15
65 15 3
65 16 16
65 17 5
65 18 6
65 19 30
65 20 11
65 21 38
65 22 33
65 23 25
65 24 7
65 25 11
65 26 28
65 27 17
65 28 40
65 29 16
65 30 23
65 31 39
65 32 31
65 33 7
65 34 19
65 35 40
65 36 27
65 37 4
65 38 16
65 39 11
65 40 23
65 41 13
65 42 16
65 43 17
65 44 7
65 45 7
65 46 30
65 47 12
65 48 25
65 49 40
65 50 14
65 51 37
65 52 5
65 53 29
65 54 4
65 55 15
65 56 38
65 57 13
65 58 32
65 59 8
65 60 3
65 61 4
65 62 21
65 63 39
65 64 9
66 0 19
66 1 1
66 2 5
66 3 34
66 4 28
66 5 6
66 6 22
66 7 18
66 8 30
66 9 18
66 10 8
66 11 25
66 12 2
66 13 35
66 14 33
66 15 6
66 16 2
66 17 20
66 18 19
66 19 11
66 20 39
66 21 5
66 22 20
66 23 10
66 24 29
66 25 20
66 26 15
66 27 13
66 28 7
66 29 27
66 30 9
66 31 39
66 32 7
66 33 16
66 34 35
66 35 8
66 36 5
66 37 18
66 38 7
66 39 38
66 40 35
66 41 7
66 42 28
66 43 4
66 44 2
66 45 26
66 46 35
66 47 20
66 48 30
66 49 10
66 50 23
66 51 5
66 52 15
66 53 27
66 54 14
66 55 11
66 56 19
66 57 25
66 58 38
66 59 6
66 60 7
66 61 18
66 62 38
66 63 34
66 64 32
66 65 35
67 0 18
67 1 34
67 2 13
67 3 17
67 4 8
67 5 37
67 6 33
67 7 1
67 8 31
67 9 14
67 10 20
67 11 5
67 12 17
67 13 7
67 14 21
67 15 6
67 16 27
67 17 13
67 18 24
67 19 12
67 20 14
67 21 35
67 22 35
67 23 36
67 24 37
67 25 22
67 26 22
67 27 27
67 28 24
67 29 12
67 30 22
67 31 35
67 32 28
67 33 31
67 34 7
67 35 8
67 36 3
67 37 27
67 38 3
67 39 28
67 40 32
67 41 16
67 42 19
67 43 40
67 44 3
67 45 36
67 46 18
67 47 1
67 48 12
67 49 3
67 50 9
67 51 32
67 52 29
67 53 5
67 54 19
67 55 21
67 56 7
67 57 14
67 58 23
67 59 39
67 60 29
67 61 29
67 62 16
67 63 10
67 64 3
67 65 11
67 66 12
68 0 12
68 1 21
68 2 11
68 3 8
68 4 16
68 5 14
68 6 33
68 7 37
68 8 37
68 9 2
68 10 5
68 11 12
68 12 17
68 13 2
68 14 22
68 15 21
68 16 20
68 17 20
68 18 23
68 19 38
68 20 16
68 21 13
68 22 31
68 23 13
68 24 8
68 25 35
68 26 37
68 27 36
68 28 30
68 29 23
68 30 11
68 31 6
68 32 1
68 33 25
68 34 7
68 35 37
68 36 14
68 37 13
68 38 14
68 39 19
68 40 2
68 41 40
68 42 15
68 43 16
68 44 37
68 45 21
68 46 14
68 47 17
68 48 33
68 49 16
68 50 30
68 51 38
68 52 26
68 53 26
68 54 34
68 55 18
68 56 33
68 57 20
68 58 20
68 59 5
68 60 18
68 61 23
68 62 35
68 63 27
68 64 38
68 65 20
68 66 13
68 67 35
69 0 9
69 1 28
69 2 3
69 3 13
69 4 11
69 5 37
69 6 26
69 7 21
69 8 24
69 9 3
69 10 36
69 11 20
69 12 23
69 13 30
69 14 21
69 15 6
69 16 40
69 17 4
69 18 26
69 19 6
69 20 12
69 21 38
69 22 11
69 23 20
69 24 4
69 25 30
69 26 25
69 27 18
69 28 10
69 29 15
69 30 34
69 31 27
69 32 16
69 33 20
69 34 38
69 35 7
69 36 29
69 37 7
69 38 37
69 39 33
69 40 19
69 41 38
69 42 30
69 43 30
69 44 16
69 45 16
69 46 21
69 47 39
69 48 8
69 49 2
69 50 36
69 51 6
69 52 22
69 53 10
69 54 26
69 55 35
69 56 21
69 57 1
69 58 2
69 59 16
69 60 5
69 61 17
69 62 11
69 63 25
69 64 21
69 65 28
69 66 12
69 67 6
69 68 8
